p cnf 962 2469
51 -695 -1 0
-51 695 0
-51 1 0
52 -51 -696 0
-52 51 0
-52 696 0
53 -697 -698 0
-53 697 0
-53 698 0
54 -53 -6 0
-54 53 0
-54 6 0
55 -699 -700 0
-55 699 0
-55 700 0
56 -701 -702 0
-56 701 0
-56 702 0
57 -56 -1 0
-57 56 0
-57 1 0
58 -703 -55 0
-58 703 0
-58 55 0
59 -704 -697 0
-59 704 0
-59 697 0
60 -59 -10 0
-60 59 0
-60 10 0
61 -705 -58 0
-61 705 0
-61 58 0
62 -706 -11 0
-62 706 0
-62 11 0
63 -62 -13 0
-63 62 0
-63 13 0
64 -707 -61 0
-64 707 0
-64 61 0
65 -15 -708 0
-65 15 0
-65 708 0
66 -65 -709 0
-66 65 0
-66 709 0
67 -710 -64 0
-67 710 0
-67 64 0
68 -17 -12 0
-68 17 0
-68 12 0
69 -68 -10 0
-69 68 0
-69 10 0
70 -711 -67 0
-70 711 0
-70 67 0
71 -712 -708 0
-71 712 0
-71 708 0
72 -71 -7 0
-72 71 0
-72 7 0
73 -713 -70 0
-73 713 0
-73 70 0
74 -19 -11 0
-74 19 0
-74 11 0
75 -74 -3 0
-75 74 0
-75 3 0
76 -714 -73 0
-76 714 0
-76 73 0
77 -20 -9 0
-77 20 0
-77 9 0
78 -77 -10 0
-78 77 0
-78 10 0
79 -715 -76 0
-79 715 0
-79 76 0
80 -716 -717 0
-80 716 0
-80 717 0
81 -80 -718 0
-81 80 0
-81 718 0
82 -719 -79 0
-82 719 0
-82 79 0
83 -720 -13 0
-83 720 0
-83 13 0
84 -83 -23 0
-84 83 0
-84 23 0
85 -721 -82 0
-85 721 0
-85 82 0
86 -722 -723 0
-86 722 0
-86 723 0
87 -86 -25 0
-87 86 0
-87 25 0
88 -724 -85 0
-88 724 0
-88 85 0
89 -725 -18 0
-89 725 0
-89 18 0
90 -89 -726 0
-90 89 0
-90 726 0
91 -727 -88 0
-91 727 0
-91 88 0
92 -29 -28 0
-92 29 0
-92 28 0
93 -92 -6 0
-93 92 0
-93 6 0
94 -728 -91 0
-94 728 0
-94 91 0
95 -27 -7 0
-95 27 0
-95 7 0
96 -95 -697 0
-96 95 0
-96 697 0
97 -729 -94 0
-97 729 0
-97 94 0
98 -31 -730 0
-98 31 0
-98 730 0
99 -98 -32 0
-99 98 0
-99 32 0
100 -731 -97 0
-100 731 0
-100 97 0
101 -33 -12 0
-101 33 0
-101 12 0
102 -101 -732 0
-102 101 0
-102 732 0
103 -733 -100 0
-103 733 0
-103 100 0
104 -35 -734 0
-104 35 0
-104 734 0
105 -104 -36 0
-105 104 0
-105 36 0
106 -735 -103 0
-106 735 0
-106 103 0
107 -736 -33 0
-107 736 0
-107 33 0
108 -107 -4 0
-108 107 0
-108 4 0
109 -737 -106 0
-109 737 0
-109 106 0
110 -38 -37 0
-110 38 0
-110 37 0
111 -110 -6 0
-111 110 0
-111 6 0
112 -738 -109 0
-112 738 0
-112 109 0
113 -718 -14 0
-113 718 0
-113 14 0
114 -113 -701 0
-114 113 0
-114 701 0
115 -739 -112 0
-115 739 0
-115 112 0
116 -30 -19 0
-116 30 0
-116 19 0
117 -116 -31 0
-117 116 0
-117 31 0
118 -740 -115 0
-118 740 0
-118 115 0
119 -34 -726 0
-119 34 0
-119 726 0
120 -119 -698 0
-120 119 0
-120 698 0
121 -741 -118 0
-121 741 0
-121 118 0
122 -742 -11 0
-122 742 0
-122 11 0
123 -122 -696 0
-123 122 0
-123 696 0
124 -743 -121 0
-124 743 0
-124 121 0
125 -40 -744 0
-125 40 0
-125 744 0
126 -125 -5 0
-126 125 0
-126 5 0
127 -745 -124 0
-127 745 0
-127 124 0
128 -746 -18 0
-128 746 0
-128 18 0
129 -128 -747 0
-129 128 0
-129 747 0
130 -748 -127 0
-130 748 0
-130 127 0
131 -709 -749 0
-131 709 0
-131 749 0
132 -131 -17 0
-132 131 0
-132 17 0
133 -750 -130 0
-133 750 0
-133 130 0
134 -751 -20 0
-134 751 0
-134 20 0
135 -134 -752 0
-135 134 0
-135 752 0
136 -753 -133 0
-136 753 0
-136 133 0
137 -747 -754 0
-137 747 0
-137 754 0
138 -137 -31 0
-138 137 0
-138 31 0
139 -755 -136 0
-139 755 0
-139 136 0
140 -722 -6 0
-140 722 0
-140 6 0
141 -140 -756 0
-141 140 0
-141 756 0
142 -757 -139 0
-142 757 0
-142 139 0
143 -758 -1 0
-143 758 0
-143 1 0
144 -143 -36 0
-144 143 0
-144 36 0
145 -759 -142 0
-145 759 0
-145 142 0
146 -760 -9 0
-146 760 0
-146 9 0
147 -146 -43 0
-147 146 0
-147 43 0
148 -761 -145 0
-148 761 0
-148 145 0
149 -720 -21 0
-149 720 0
-149 21 0
150 -149 -29 0
-150 149 0
-150 29 0
151 -762 -148 0
-151 762 0
-151 148 0
152 -763 -35 0
-152 763 0
-152 35 0
153 -152 -732 0
-153 152 0
-153 732 0
154 -764 -151 0
-154 764 0
-154 151 0
155 -45 -14 0
-155 45 0
-155 14 0
156 -155 -22 0
-156 155 0
-156 22 0
157 -765 -154 0
-157 765 0
-157 154 0
158 -730 -8 0
-158 730 0
-158 8 0
159 -158 -744 0
-159 158 0
-159 744 0
160 -766 -157 0
-160 766 0
-160 157 0
161 -712 -706 0
-161 712 0
-161 706 0
162 -161 -6 0
-162 161 0
-162 6 0
163 -767 -160 0
-163 767 0
-163 160 0
164 -43 -40 0
-164 43 0
-164 40 0
165 -164 -768 0
-165 164 0
-165 768 0
166 -769 -163 0
-166 769 0
-166 163 0
167 -14 -13 0
-167 14 0
-167 13 0
168 -167 -31 0
-168 167 0
-168 31 0
169 -770 -166 0
-169 770 0
-169 166 0
170 -736 -734 0
-170 736 0
-170 734 0
171 -170 -696 0
-171 170 0
-171 696 0
172 -771 -169 0
-172 771 0
-172 169 0
173 -45 -16 0
-173 45 0
-173 16 0
174 -173 -772 0
-174 173 0
-174 772 0
175 -773 -172 0
-175 773 0
-175 172 0
176 -45 -2 0
-176 45 0
-176 2 0
177 -176 -772 0
-177 176 0
-177 772 0
178 -774 -175 0
-178 774 0
-178 175 0
179 -760 -14 0
-179 760 0
-179 14 0
180 -179 -775 0
-180 179 0
-180 775 0
181 -776 -178 0
-181 776 0
-181 178 0
182 -777 -725 0
-182 777 0
-182 725 0
183 -182 -778 0
-183 182 0
-183 778 0
184 -779 -181 0
-184 779 0
-184 181 0
185 -27 -26 0
-185 27 0
-185 26 0
186 -185 -697 0
-186 185 0
-186 697 0
187 -780 -184 0
-187 780 0
-187 184 0
188 -734 -26 0
-188 734 0
-188 26 0
189 -188 -698 0
-189 188 0
-189 698 0
190 -781 -187 0
-190 781 0
-190 187 0
191 -752 -708 0
-191 752 0
-191 708 0
192 -191 -702 0
-192 191 0
-192 702 0
193 -782 -190 0
-193 782 0
-193 190 0
194 -49 -48 0
-194 49 0
-194 48 0
195 -194 -772 0
-195 194 0
-195 772 0
196 -783 -193 0
-196 783 0
-196 193 0
197 -28 -12 0
-197 28 0
-197 12 0
198 -197 -784 0
-198 197 0
-198 784 0
199 -785 -196 0
-199 785 0
-199 196 0
200 -763 -24 0
-200 763 0
-200 24 0
201 -200 -41 0
-201 200 0
-201 41 0
202 -786 -199 0
-202 786 0
-202 199 0
203 -42 -7 0
-203 42 0
-203 7 0
204 -203 -10 0
-204 203 0
-204 10 0
205 -787 -202 0
-205 787 0
-205 202 0
206 -778 -751 0
-206 778 0
-206 751 0
207 -206 -696 0
-207 206 0
-207 696 0
208 -788 -205 0
-208 788 0
-208 205 0
209 -754 -14 0
-209 754 0
-209 14 0
210 -209 -696 0
-210 209 0
-210 696 0
211 -789 -208 0
-211 789 0
-211 208 0
212 -14 -12 0
-212 14 0
-212 12 0
213 -212 -50 0
-213 212 0
-213 50 0
214 -790 -211 0
-214 790 0
-214 211 0
215 -734 -712 0
-215 734 0
-215 712 0
216 -215 -706 0
-216 215 0
-216 706 0
217 -791 -214 0
-217 791 0
-217 214 0
218 -777 -42 0
-218 777 0
-218 42 0
219 -218 -747 0
-219 218 0
-219 747 0
220 -792 -217 0
-220 792 0
-220 217 0
221 -48 -34 0
-221 48 0
-221 34 0
222 -221 -793 0
-222 221 0
-222 793 0
223 -794 -220 0
-223 794 0
-223 220 0
224 -5 -698 0
-224 5 0
-224 698 0
225 -224 -772 0
-225 224 0
-225 772 0
226 -795 -223 0
-226 795 0
-226 223 0
227 -751 -30 0
-227 751 0
-227 30 0
228 -227 -726 0
-228 227 0
-228 726 0
229 -796 -226 0
-229 796 0
-229 226 0
230 -797 -758 0
-230 797 0
-230 758 0
231 -230 -48 0
-231 230 0
-231 48 0
232 -798 -229 0
-232 798 0
-232 229 0
233 -706 -8 0
-233 706 0
-233 8 0
234 -233 -720 0
-234 233 0
-234 720 0
235 -799 -232 0
-235 799 0
-235 232 0
236 -48 -11 0
-236 48 0
-236 11 0
237 -236 -784 0
-237 236 0
-237 784 0
238 -800 -235 0
-238 800 0
-238 235 0
239 -760 -8 0
-239 760 0
-239 8 0
240 -239 -742 0
-240 239 0
-240 742 0
241 -801 -238 0
-241 801 0
-241 238 0
242 -46 -734 0
-242 46 0
-242 734 0
243 -242 -29 0
-243 242 0
-243 29 0
244 -802 -241 0
-244 802 0
-244 241 0
245 -42 -14 0
-245 42 0
-245 14 0
246 -245 -696 0
-246 245 0
-246 696 0
247 -803 -244 0
-247 803 0
-247 244 0
248 -793 -708 0
-248 793 0
-248 708 0
249 -248 -804 0
-249 248 0
-249 804 0
250 -805 -247 0
-250 805 0
-250 247 0
251 -43 -723 0
-251 43 0
-251 723 0
252 -251 -804 0
-252 251 0
-252 804 0
253 -806 -250 0
-253 806 0
-253 250 0
254 -44 -751 0
-254 44 0
-254 751 0
255 -254 -25 0
-255 254 0
-255 25 0
256 -807 -253 0
-256 807 0
-256 253 0
257 -34 -19 0
-257 34 0
-257 19 0
258 -257 -747 0
-258 257 0
-258 747 0
259 -808 -256 0
-259 808 0
-259 256 0
260 -751 -37 0
-260 751 0
-260 37 0
261 -260 -39 0
-261 260 0
-261 39 0
262 -809 -259 0
-262 809 0
-262 259 0
263 -21 -810 0
-263 21 0
-263 810 0
264 -263 -40 0
-264 263 0
-264 40 0
265 -811 -262 0
-265 811 0
-265 262 0
266 -34 -15 0
-266 34 0
-266 15 0
267 -266 -40 0
-267 266 0
-267 40 0
268 -812 -265 0
-268 812 0
-268 265 0
269 -734 -730 0
-269 734 0
-269 730 0
270 -269 -41 0
-270 269 0
-270 41 0
271 -813 -268 0
-271 813 0
-271 268 0
272 -708 -775 0
-272 708 0
-272 775 0
273 -272 -756 0
-273 272 0
-273 756 0
274 -814 -271 0
-274 814 0
-274 271 0
275 -778 -725 0
-275 778 0
-275 725 0
276 -275 -31 0
-276 275 0
-276 31 0
277 -815 -274 0
-277 815 0
-277 274 0
278 -74 -10 0
-278 74 0
-278 10 0
279 -816 -277 0
-279 816 0
-279 277 0
280 -34 -720 0
-280 34 0
-280 720 0
281 -280 -40 0
-281 280 0
-281 40 0
282 -817 -279 0
-282 817 0
-282 279 0
283 -818 -712 0
-283 818 0
-283 712 0
284 -283 -36 0
-284 283 0
-284 36 0
285 -819 -282 0
-285 819 0
-285 282 0
286 -45 -708 0
-286 45 0
-286 708 0
287 -286 -16 0
-287 286 0
-287 16 0
288 -820 -285 0
-288 820 0
-288 285 0
289 -754 -28 0
-289 754 0
-289 28 0
290 -289 -3 0
-290 289 0
-290 3 0
291 -821 -288 0
-291 821 0
-291 288 0
292 -742 -702 0
-292 742 0
-292 702 0
293 -292 -31 0
-293 292 0
-293 31 0
294 -822 -291 0
-294 822 0
-294 291 0
295 -35 -716 0
-295 35 0
-295 716 0
296 -295 -720 0
-296 295 0
-296 720 0
297 -823 -294 0
-297 823 0
-297 294 0
298 -36 -696 0
-298 36 0
-298 696 0
299 -298 -746 0
-299 298 0
-299 746 0
300 -824 -297 0
-300 824 0
-300 297 0
301 -742 -717 0
-301 742 0
-301 717 0
302 -301 -4 0
-302 301 0
-302 4 0
303 -825 -300 0
-303 825 0
-303 300 0
304 -20 -704 0
-304 20 0
-304 704 0
305 -304 -698 0
-305 304 0
-305 698 0
306 -826 -303 0
-306 826 0
-306 303 0
307 -827 -30 0
-307 827 0
-307 30 0
308 -307 -746 0
-308 307 0
-308 746 0
309 -828 -306 0
-309 828 0
-309 306 0
310 -746 -35 0
-310 746 0
-310 35 0
311 -310 -784 0
-311 310 0
-311 784 0
312 -829 -309 0
-312 829 0
-312 309 0
313 -716 -712 0
-313 716 0
-313 712 0
314 -313 -709 0
-314 313 0
-314 709 0
315 -830 -312 0
-315 830 0
-315 312 0
316 -48 -763 0
-316 48 0
-316 763 0
317 -316 -50 0
-317 316 0
-317 50 0
318 -831 -315 0
-318 831 0
-318 315 0
319 -15 -7 0
-319 15 0
-319 7 0
320 -319 -744 0
-320 319 0
-320 744 0
321 -832 -318 0
-321 832 0
-321 318 0
322 -744 -758 0
-322 744 0
-322 758 0
323 -322 -10 0
-323 322 0
-323 10 0
324 -833 -321 0
-324 833 0
-324 321 0
325 -37 -712 0
-325 37 0
-325 712 0
326 -325 -40 0
-326 325 0
-326 40 0
327 -834 -324 0
-327 834 0
-327 324 0
328 -43 -34 0
-328 43 0
-328 34 0
329 -328 -12 0
-329 328 0
-329 12 0
330 -835 -327 0
-330 835 0
-330 327 0
331 -818 -1 0
-331 818 0
-331 1 0
332 -331 -6 0
-332 331 0
-332 6 0
333 -836 -330 0
-333 836 0
-333 330 0
334 -709 -15 0
-334 709 0
-334 15 0
335 -334 -810 0
-335 334 0
-335 810 0
336 -837 -333 0
-336 837 0
-336 333 0
337 -32 -810 0
-337 32 0
-337 810 0
338 -337 -697 0
-338 337 0
-338 697 0
339 -838 -336 0
-339 838 0
-339 336 0
340 -778 -36 0
-340 778 0
-340 36 0
341 -340 -747 0
-341 340 0
-341 747 0
342 -839 -339 0
-342 839 0
-342 339 0
343 -696 -749 0
-343 696 0
-343 749 0
344 -343 -772 0
-344 343 0
-344 772 0
345 -840 -342 0
-345 840 0
-345 342 0
346 -712 -9 0
-346 712 0
-346 9 0
347 -346 -754 0
-347 346 0
-347 754 0
348 -841 -345 0
-348 841 0
-348 345 0
349 -827 -21 0
-349 827 0
-349 21 0
350 -349 -16 0
-350 349 0
-350 16 0
351 -842 -348 0
-351 842 0
-351 348 0
352 -19 -723 0
-352 19 0
-352 723 0
353 -352 -49 0
-353 352 0
-353 49 0
354 -843 -351 0
-354 843 0
-354 351 0
355 -784 -810 0
-355 784 0
-355 810 0
356 -355 -5 0
-356 355 0
-356 5 0
357 -844 -354 0
-357 844 0
-357 354 0
358 -47 -717 0
-358 47 0
-358 717 0
359 -358 -29 0
-359 358 0
-359 29 0
360 -845 -357 0
-360 845 0
-360 357 0
361 -725 -716 0
-361 725 0
-361 716 0
362 -361 -10 0
-362 361 0
-362 10 0
363 -846 -360 0
-363 846 0
-363 360 0
364 -763 -15 0
-364 763 0
-364 15 0
365 -364 -810 0
-365 364 0
-365 810 0
366 -847 -363 0
-366 847 0
-366 363 0
367 -35 -7 0
-367 35 0
-367 7 0
368 -367 -22 0
-368 367 0
-368 22 0
369 -848 -366 0
-369 848 0
-369 366 0
370 -16 -723 0
-370 16 0
-370 723 0
371 -370 -784 0
-371 370 0
-371 784 0
372 -849 -369 0
-372 849 0
-372 369 0
373 -730 -775 0
-373 730 0
-373 775 0
374 -373 -49 0
-374 373 0
-374 49 0
375 -850 -372 0
-375 850 0
-375 372 0
376 -26 -712 0
-376 26 0
-376 712 0
377 -376 -3 0
-377 376 0
-377 3 0
378 -851 -375 0
-378 851 0
-378 375 0
379 -734 -706 0
-379 734 0
-379 706 0
380 -379 -44 0
-380 379 0
-380 44 0
381 -852 -378 0
-381 852 0
-381 378 0
382 -15 -11 0
-382 15 0
-382 11 0
383 -382 -3 0
-383 382 0
-383 3 0
384 -853 -381 0
-384 853 0
-384 381 0
385 -12 -701 0
-385 12 0
-385 701 0
386 -385 -22 0
-386 385 0
-386 22 0
387 -854 -384 0
-387 854 0
-387 384 0
388 -17 -702 0
-388 17 0
-388 702 0
389 -388 -772 0
-389 388 0
-389 772 0
390 -855 -387 0
-390 855 0
-390 387 0
391 -827 -725 0
-391 827 0
-391 725 0
392 -391 -6 0
-392 391 0
-392 6 0
393 -856 -390 0
-393 856 0
-393 390 0
394 -30 -775 0
-394 30 0
-394 775 0
395 -394 -784 0
-395 394 0
-395 784 0
396 -857 -393 0
-396 857 0
-396 393 0
397 -818 -21 0
-397 818 0
-397 21 0
398 -397 -2 0
-398 397 0
-398 2 0
399 -858 -396 0
-399 858 0
-399 396 0
400 -50 -720 0
-400 50 0
-400 720 0
401 -400 -23 0
-401 400 0
-401 23 0
402 -859 -399 0
-402 859 0
-402 399 0
403 -27 -15 0
-403 27 0
-403 15 0
404 -403 -25 0
-404 403 0
-404 25 0
405 -860 -402 0
-405 860 0
-405 402 0
406 -763 -25 0
-406 763 0
-406 25 0
407 -406 -697 0
-407 406 0
-407 697 0
408 -861 -405 0
-408 861 0
-408 405 0
409 -48 -758 0
-409 48 0
-409 758 0
410 -409 -730 0
-410 409 0
-410 730 0
411 -862 -408 0
-411 862 0
-411 408 0
412 -45 -32 0
-412 45 0
-412 32 0
413 -412 -6 0
-413 412 0
-413 6 0
414 -863 -411 0
-414 863 0
-414 411 0
415 -43 -726 0
-415 43 0
-415 726 0
416 -415 -6 0
-416 415 0
-416 6 0
417 -864 -414 0
-417 864 0
-417 414 0
418 -865 -28 0
-418 865 0
-418 28 0
419 -418 -804 0
-419 418 0
-419 804 0
420 -866 -417 0
-420 866 0
-420 417 0
421 -42 -760 0
-421 42 0
-421 760 0
422 -421 -45 0
-422 421 0
-422 45 0
423 -867 -420 0
-423 867 0
-423 420 0
424 -149 -747 0
-424 149 0
-424 747 0
425 -868 -423 0
-425 868 0
-425 423 0
426 -744 -760 0
-426 744 0
-426 760 0
427 -426 -50 0
-427 426 0
-427 50 0
428 -869 -425 0
-428 869 0
-428 425 0
429 -870 -701 0
-429 870 0
-429 701 0
430 -429 -784 0
-430 429 0
-430 784 0
431 -871 -428 0
-431 871 0
-431 428 0
432 -26 -14 0
-432 26 0
-432 14 0
433 -432 -17 0
-433 432 0
-433 17 0
434 -872 -431 0
-434 872 0
-434 431 0
435 -36 -695 0
-435 36 0
-435 695 0
436 -435 -696 0
-436 435 0
-436 696 0
437 -873 -434 0
-437 873 0
-437 434 0
438 -46 -19 0
-438 46 0
-438 19 0
439 -438 -50 0
-439 438 0
-439 50 0
440 -874 -437 0
-440 874 0
-440 437 0
441 -43 -39 0
-441 43 0
-441 39 0
442 -441 -10 0
-442 441 0
-442 10 0
443 -875 -440 0
-443 875 0
-443 440 0
444 -797 -723 0
-444 797 0
-444 723 0
445 -444 -772 0
-445 444 0
-445 772 0
446 -876 -443 0
-446 876 0
-446 443 0
447 -818 -43 0
-447 818 0
-447 43 0
448 -447 -17 0
-448 447 0
-448 17 0
449 -877 -446 0
-449 877 0
-449 446 0
450 -742 -19 0
-450 742 0
-450 19 0
451 -450 -736 0
-451 450 0
-451 736 0
452 -878 -449 0
-452 878 0
-452 449 0
453 -42 -12 0
-453 42 0
-453 12 0
454 -453 -726 0
-454 453 0
-454 726 0
455 -879 -452 0
-455 879 0
-455 452 0
456 -307 -43 0
-456 307 0
-456 43 0
457 -880 -455 0
-457 880 0
-457 455 0
458 -827 -797 0
-458 827 0
-458 797 0
459 -458 -16 0
-459 458 0
-459 16 0
460 -881 -457 0
-460 881 0
-460 457 0
461 -754 -27 0
-461 754 0
-461 27 0
462 -461 -3 0
-462 461 0
-462 3 0
463 -882 -460 0
-463 882 0
-463 460 0
464 -37 -28 0
-464 37 0
-464 28 0
465 -464 -706 0
-465 464 0
-465 706 0
466 -883 -463 0
-466 883 0
-466 463 0
467 -720 -712 0
-467 720 0
-467 712 0
468 -467 -41 0
-468 467 0
-468 41 0
469 -884 -466 0
-469 884 0
-469 466 0
470 -16 -695 0
-470 16 0
-470 695 0
471 -470 -4 0
-471 470 0
-471 4 0
472 -885 -469 0
-472 885 0
-472 469 0
473 -397 -784 0
-473 397 0
-473 784 0
474 -886 -472 0
-474 886 0
-474 472 0
475 -827 -760 0
-475 827 0
-475 760 0
476 -475 -709 0
-476 475 0
-476 709 0
477 -887 -474 0
-477 887 0
-477 474 0
478 -48 -704 0
-478 48 0
-478 704 0
479 -478 -2 0
-479 478 0
-479 2 0
480 -888 -477 0
-480 888 0
-480 477 0
481 -751 -754 0
-481 751 0
-481 754 0
482 -481 -41 0
-482 481 0
-482 41 0
483 -889 -480 0
-483 889 0
-483 480 0
484 -730 -2 0
-484 730 0
-484 2 0
485 -484 -744 0
-485 484 0
-485 744 0
486 -890 -483 0
-486 890 0
-486 483 0
487 -28 -725 0
-487 28 0
-487 725 0
488 -487 -763 0
-488 487 0
-488 763 0
489 -891 -486 0
-489 891 0
-489 486 0
490 -712 -7 0
-490 712 0
-490 7 0
491 -490 -698 0
-491 490 0
-491 698 0
492 -892 -489 0
-492 892 0
-492 489 0
493 -14 -775 0
-493 14 0
-493 775 0
494 -493 -50 0
-494 493 0
-494 50 0
495 -893 -492 0
-495 893 0
-495 492 0
496 -33 -29 0
-496 33 0
-496 29 0
497 -496 -6 0
-497 496 0
-497 6 0
498 -894 -495 0
-498 894 0
-498 495 0
499 -38 -754 0
-499 38 0
-499 754 0
500 -499 -29 0
-500 499 0
-500 29 0
501 -895 -498 0
-501 895 0
-501 498 0
502 -751 -34 0
-502 751 0
-502 34 0
503 -502 -14 0
-503 502 0
-503 14 0
504 -896 -501 0
-504 896 0
-504 501 0
505 -712 -698 0
-505 712 0
-505 698 0
506 -505 -772 0
-506 505 0
-506 772 0
507 -897 -504 0
-507 897 0
-507 504 0
508 -441 -32 0
-508 441 0
-508 32 0
509 -898 -507 0
-509 898 0
-509 507 0
510 -695 -749 0
-510 695 0
-510 749 0
511 -510 -696 0
-511 510 0
-511 696 0
512 -899 -509 0
-512 899 0
-512 509 0
513 -804 -32 0
-513 804 0
-513 32 0
514 -513 -23 0
-514 513 0
-514 23 0
515 -900 -512 0
-515 900 0
-515 512 0
516 -758 -723 0
-516 758 0
-516 723 0
517 -516 -697 0
-517 516 0
-517 697 0
518 -901 -515 0
-518 901 0
-518 515 0
519 -46 -712 0
-519 46 0
-519 712 0
520 -519 -17 0
-520 519 0
-520 17 0
521 -902 -518 0
-521 902 0
-521 518 0
522 -34 -16 0
-522 34 0
-522 16 0
523 -522 -31 0
-523 522 0
-523 31 0
524 -903 -521 0
-524 903 0
-524 521 0
525 -49 -34 0
-525 49 0
-525 34 0
526 -525 -718 0
-526 525 0
-526 718 0
527 -904 -524 0
-527 904 0
-527 524 0
528 -39 -708 0
-528 39 0
-528 708 0
529 -528 -25 0
-529 528 0
-529 25 0
530 -905 -527 0
-530 905 0
-530 527 0
531 -763 -36 0
-531 763 0
-531 36 0
532 -531 -23 0
-532 531 0
-532 23 0
533 -906 -530 0
-533 906 0
-533 530 0
534 -751 -9 0
-534 751 0
-534 9 0
535 -534 -717 0
-535 534 0
-535 717 0
536 -907 -533 0
-536 907 0
-536 533 0
537 -44 -37 0
-537 44 0
-537 37 0
538 -537 -29 0
-538 537 0
-538 29 0
539 -908 -536 0
-539 908 0
-539 536 0
540 -827 -9 0
-540 827 0
-540 9 0
541 -540 -38 0
-541 540 0
-541 38 0
542 -909 -539 0
-542 909 0
-542 539 0
543 -43 -1 0
-543 43 0
-543 1 0
544 -543 -35 0
-544 543 0
-544 35 0
545 -910 -542 0
-545 910 0
-545 542 0
546 -22 -718 0
-546 22 0
-546 718 0
547 -546 -772 0
-547 546 0
-547 772 0
548 -911 -545 0
-548 911 0
-548 545 0
549 -751 -16 0
-549 751 0
-549 16 0
550 -549 -33 0
-550 549 0
-550 33 0
551 -912 -548 0
-551 912 0
-551 548 0
552 -708 -698 0
-552 708 0
-552 698 0
553 -552 -17 0
-553 552 0
-553 17 0
554 -913 -551 0
-554 913 0
-554 551 0
555 -734 -914 0
-555 734 0
-555 914 0
556 -555 -810 0
-556 555 0
-556 810 0
557 -915 -554 0
-557 915 0
-557 554 0
558 -25 -18 0
-558 25 0
-558 18 0
559 -558 -29 0
-559 558 0
-559 29 0
560 -916 -557 0
-560 916 0
-560 557 0
561 -46 -14 0
-561 46 0
-561 14 0
562 -561 -730 0
-562 561 0
-562 730 0
563 -917 -560 0
-563 917 0
-563 560 0
564 -726 -11 0
-564 726 0
-564 11 0
565 -564 -38 0
-565 564 0
-565 38 0
566 -918 -563 0
-566 918 0
-566 563 0
567 -16 -15 0
-567 16 0
-567 15 0
568 -567 -744 0
-568 567 0
-568 744 0
569 -919 -566 0
-569 919 0
-569 566 0
570 -38 -758 0
-570 38 0
-570 758 0
571 -570 -768 0
-571 570 0
-571 768 0
572 -920 -569 0
-572 920 0
-572 569 0
573 -709 -695 0
-573 709 0
-573 695 0
574 -573 -732 0
-574 573 0
-574 732 0
575 -921 -572 0
-575 921 0
-575 572 0
576 -21 -16 0
-576 21 0
-576 16 0
577 -576 -742 0
-577 576 0
-577 742 0
578 -922 -575 0
-578 922 0
-578 575 0
579 -726 -7 0
-579 726 0
-579 7 0
580 -579 -804 0
-580 579 0
-580 804 0
581 -923 -578 0
-581 923 0
-581 578 0
582 -16 -701 0
-582 16 0
-582 701 0
583 -582 -40 0
-583 582 0
-583 40 0
584 -924 -581 0
-584 924 0
-584 581 0
585 -778 -712 0
-585 778 0
-585 712 0
586 -585 -720 0
-586 585 0
-586 720 0
587 -925 -584 0
-587 925 0
-587 584 0
588 -33 -706 0
-588 33 0
-588 706 0
589 -588 -720 0
-589 588 0
-589 720 0
590 -926 -587 0
-590 926 0
-590 587 0
591 -21 -749 0
-591 21 0
-591 749 0
592 -591 -695 0
-592 591 0
-592 695 0
593 -927 -590 0
-593 927 0
-593 590 0
594 -747 -36 0
-594 747 0
-594 36 0
595 -594 -756 0
-595 594 0
-595 756 0
596 -928 -593 0
-596 928 0
-596 593 0
597 -760 -720 0
-597 760 0
-597 720 0
598 -597 -32 0
-598 597 0
-598 32 0
599 -929 -596 0
-599 929 0
-599 596 0
600 -12 -1 0
-600 12 0
-600 1 0
601 -600 -772 0
-601 600 0
-601 772 0
602 -930 -599 0
-602 930 0
-602 599 0
603 -718 -708 0
-603 718 0
-603 708 0
604 -603 -3 0
-604 603 0
-604 3 0
605 -931 -602 0
-605 931 0
-605 602 0
606 -722 -11 0
-606 722 0
-606 11 0
607 -606 -44 0
-607 606 0
-607 44 0
608 -932 -605 0
-608 932 0
-608 605 0
609 -797 -37 0
-609 797 0
-609 37 0
610 -609 -754 0
-610 609 0
-610 754 0
611 -933 -608 0
-611 933 0
-611 608 0
612 -778 -734 0
-612 778 0
-612 734 0
613 -612 -701 0
-613 612 0
-613 701 0
614 -934 -611 0
-614 934 0
-614 611 0
615 -752 -754 0
-615 752 0
-615 754 0
616 -615 -23 0
-616 615 0
-616 23 0
617 -935 -614 0
-617 935 0
-617 614 0
618 -763 -9 0
-618 763 0
-618 9 0
619 -618 -22 0
-619 618 0
-619 22 0
620 -936 -617 0
-620 936 0
-620 617 0
621 -534 -754 0
-621 534 0
-621 754 0
622 -937 -620 0
-622 937 0
-622 620 0
623 -48 -26 0
-623 48 0
-623 26 0
624 -623 -756 0
-624 623 0
-624 756 0
625 -938 -622 0
-625 938 0
-625 622 0
626 -48 -725 0
-626 48 0
-626 725 0
627 -626 -8 0
-627 626 0
-627 8 0
628 -939 -625 0
-628 939 0
-628 625 0
629 -528 -768 0
-629 528 0
-629 768 0
630 -940 -628 0
-630 940 0
-630 628 0
631 -27 -722 0
-631 27 0
-631 722 0
632 -631 -2 0
-632 631 0
-632 2 0
633 -941 -630 0
-633 941 0
-633 630 0
634 -24 -18 0
-634 24 0
-634 18 0
635 -634 -697 0
-635 634 0
-635 697 0
636 -942 -633 0
-636 942 0
-636 633 0
637 -40 -2 0
-637 40 0
-637 2 0
638 -637 -697 0
-638 637 0
-638 697 0
639 -943 -636 0
-639 943 0
-639 636 0
640 -744 -2 0
-640 744 0
-640 2 0
641 -640 -784 0
-641 640 0
-641 784 0
642 -944 -639 0
-642 944 0
-642 639 0
643 -718 -717 0
-643 718 0
-643 717 0
644 -643 -720 0
-644 643 0
-644 720 0
645 -945 -642 0
-645 945 0
-645 642 0
646 -26 -708 0
-646 26 0
-646 708 0
647 -646 -744 0
-647 646 0
-647 744 0
648 -946 -645 0
-648 946 0
-648 645 0
649 -612 -746 0
-649 612 0
-649 746 0
650 -947 -648 0
-650 947 0
-650 648 0
651 -746 -734 0
-651 746 0
-651 734 0
652 -651 -10 0
-652 651 0
-652 10 0
653 -948 -650 0
-653 948 0
-653 650 0
654 -20 -15 0
-654 20 0
-654 15 0
655 -654 -697 0
-655 654 0
-655 697 0
656 -949 -653 0
-656 949 0
-656 653 0
657 -15 -12 0
-657 15 0
-657 12 0
658 -657 -35 0
-658 657 0
-658 35 0
659 -950 -656 0
-659 950 0
-659 656 0
660 -777 -31 0
-660 777 0
-660 31 0
661 -660 -768 0
-661 660 0
-661 768 0
662 -951 -659 0
-662 951 0
-662 659 0
663 -21 -2 0
-663 21 0
-663 2 0
664 -663 -41 0
-664 663 0
-664 41 0
665 -952 -662 0
-665 952 0
-665 662 0
666 -754 -20 0
-666 754 0
-666 20 0
667 -666 -804 0
-667 666 0
-667 804 0
668 -953 -665 0
-668 953 0
-668 665 0
669 -376 -49 0
-669 376 0
-669 49 0
670 -954 -668 0
-670 954 0
-670 668 0
671 -44 -736 0
-671 44 0
-671 736 0
672 -671 -696 0
-672 671 0
-672 696 0
673 -955 -670 0
-673 955 0
-673 670 0
674 -46 -758 0
-674 46 0
-674 758 0
675 -674 -778 0
-675 674 0
-675 778 0
676 -956 -673 0
-676 956 0
-676 673 0
677 -48 -21 0
-677 48 0
-677 21 0
678 -677 -17 0
-678 677 0
-678 17 0
679 -957 -676 0
-679 957 0
-679 676 0
680 -827 -718 0
-680 827 0
-680 718 0
681 -680 -1 0
-681 680 0
-681 1 0
682 -958 -679 0
-682 958 0
-682 679 0
683 -763 -4 0
-683 763 0
-683 4 0
684 -683 -10 0
-684 683 0
-684 10 0
685 -959 -682 0
-685 959 0
-685 682 0
686 -754 -11 0
-686 754 0
-686 11 0
687 -686 -17 0
-687 686 0
-687 17 0
688 -960 -685 0
-688 960 0
-688 685 0
689 -37 -708 0
-689 37 0
-689 708 0
690 -689 -12 0
-690 689 0
-690 12 0
691 -961 -688 0
-691 961 0
-691 688 0
692 -48 -709 0
-692 48 0
-692 709 0
693 -692 -40 0
-693 692 0
-693 40 0
694 -962 -691 0
-694 962 0
-694 691 0
-695 -2 0
695 2 0
-696 -3 0
696 3 0
-697 -5 0
697 5 0
-698 -4 0
698 4 0
-699 -54 0
699 54 0
-700 -52 0
700 52 0
-701 -8 0
701 8 0
-702 -7 0
702 7 0
-703 -57 0
703 57 0
-704 -9 0
704 9 0
-705 -60 0
705 60 0
-706 -12 0
706 12 0
-707 -63 0
707 63 0
-708 -14 0
708 14 0
-709 -16 0
709 16 0
-710 -66 0
710 66 0
-711 -69 0
711 69 0
-712 -18 0
712 18 0
-713 -72 0
713 72 0
-714 -75 0
714 75 0
-715 -78 0
715 78 0
-716 -20 0
716 20 0
-717 -11 0
717 11 0
-718 -21 0
718 21 0
-719 -81 0
719 81 0
-720 -22 0
720 22 0
-721 -84 0
721 84 0
-722 -24 0
722 24 0
-723 -15 0
723 15 0
-724 -87 0
724 87 0
-725 -26 0
725 26 0
-726 -27 0
726 27 0
-727 -90 0
727 90 0
-728 -93 0
728 93 0
-729 -96 0
729 96 0
-730 -30 0
730 30 0
-731 -99 0
731 99 0
-732 -31 0
732 31 0
-733 -102 0
733 102 0
-734 -34 0
734 34 0
-735 -105 0
735 105 0
-736 -36 0
736 36 0
-737 -108 0
737 108 0
-738 -111 0
738 111 0
-739 -114 0
739 114 0
-740 -117 0
740 117 0
-741 -120 0
741 120 0
-742 -35 0
742 35 0
-743 -123 0
743 123 0
-744 -39 0
744 39 0
-745 -126 0
745 126 0
-746 -41 0
746 41 0
-747 -40 0
747 40 0
-748 -129 0
748 129 0
-749 -1 0
749 1 0
-750 -132 0
750 132 0
-751 -42 0
751 42 0
-752 -43 0
752 43 0
-753 -135 0
753 135 0
-754 -33 0
754 33 0
-755 -138 0
755 138 0
-756 -23 0
756 23 0
-757 -141 0
757 141 0
-758 -19 0
758 19 0
-759 -144 0
759 144 0
-760 -37 0
760 37 0
-761 -147 0
761 147 0
-762 -150 0
762 150 0
-763 -44 0
763 44 0
-764 -153 0
764 153 0
-765 -156 0
765 156 0
-766 -159 0
766 159 0
-767 -162 0
767 162 0
-768 -10 0
768 10 0
-769 -165 0
769 165 0
-770 -168 0
770 168 0
-771 -171 0
771 171 0
-772 -6 0
772 6 0
-773 -174 0
773 174 0
-774 -177 0
774 177 0
-775 -13 0
775 13 0
-776 -180 0
776 180 0
-777 -46 0
777 46 0
-778 -47 0
778 47 0
-779 -183 0
779 183 0
-780 -186 0
780 186 0
-781 -189 0
781 189 0
-782 -192 0
782 192 0
-783 -195 0
783 195 0
-784 -32 0
784 32 0
-785 -198 0
785 198 0
-786 -201 0
786 201 0
-787 -204 0
787 204 0
-788 -207 0
788 207 0
-789 -210 0
789 210 0
-790 -213 0
790 213 0
-791 -216 0
791 216 0
-792 -219 0
792 219 0
-793 -29 0
793 29 0
-794 -222 0
794 222 0
-795 -225 0
795 225 0
-796 -228 0
796 228 0
-797 -45 0
797 45 0
-798 -231 0
798 231 0
-799 -234 0
799 234 0
-800 -237 0
800 237 0
-801 -240 0
801 240 0
-802 -243 0
802 243 0
-803 -246 0
803 246 0
-804 -50 0
804 50 0
-805 -249 0
805 249 0
-806 -252 0
806 252 0
-807 -255 0
807 255 0
-808 -258 0
808 258 0
-809 -261 0
809 261 0
-810 -17 0
810 17 0
-811 -264 0
811 264 0
-812 -267 0
812 267 0
-813 -270 0
813 270 0
-814 -273 0
814 273 0
-815 -276 0
815 276 0
-816 -278 0
816 278 0
-817 -281 0
817 281 0
-818 -49 0
818 49 0
-819 -284 0
819 284 0
-820 -287 0
820 287 0
-821 -290 0
821 290 0
-822 -293 0
822 293 0
-823 -296 0
823 296 0
-824 -299 0
824 299 0
-825 -302 0
825 302 0
-826 -305 0
826 305 0
-827 -48 0
827 48 0
-828 -308 0
828 308 0
-829 -311 0
829 311 0
-830 -314 0
830 314 0
-831 -317 0
831 317 0
-832 -320 0
832 320 0
-833 -323 0
833 323 0
-834 -326 0
834 326 0
-835 -329 0
835 329 0
-836 -332 0
836 332 0
-837 -335 0
837 335 0
-838 -338 0
838 338 0
-839 -341 0
839 341 0
-840 -344 0
840 344 0
-841 -347 0
841 347 0
-842 -350 0
842 350 0
-843 -353 0
843 353 0
-844 -356 0
844 356 0
-845 -359 0
845 359 0
-846 -362 0
846 362 0
-847 -365 0
847 365 0
-848 -368 0
848 368 0
-849 -371 0
849 371 0
-850 -374 0
850 374 0
-851 -377 0
851 377 0
-852 -380 0
852 380 0
-853 -383 0
853 383 0
-854 -386 0
854 386 0
-855 -389 0
855 389 0
-856 -392 0
856 392 0
-857 -395 0
857 395 0
-858 -398 0
858 398 0
-859 -401 0
859 401 0
-860 -404 0
860 404 0
-861 -407 0
861 407 0
-862 -410 0
862 410 0
-863 -413 0
863 413 0
-864 -416 0
864 416 0
-865 -38 0
865 38 0
-866 -419 0
866 419 0
-867 -422 0
867 422 0
-868 -424 0
868 424 0
-869 -427 0
869 427 0
-870 -28 0
870 28 0
-871 -430 0
871 430 0
-872 -433 0
872 433 0
-873 -436 0
873 436 0
-874 -439 0
874 439 0
-875 -442 0
875 442 0
-876 -445 0
876 445 0
-877 -448 0
877 448 0
-878 -451 0
878 451 0
-879 -454 0
879 454 0
-880 -456 0
880 456 0
-881 -459 0
881 459 0
-882 -462 0
882 462 0
-883 -465 0
883 465 0
-884 -468 0
884 468 0
-885 -471 0
885 471 0
-886 -473 0
886 473 0
-887 -476 0
887 476 0
-888 -479 0
888 479 0
-889 -482 0
889 482 0
-890 -485 0
890 485 0
-891 -488 0
891 488 0
-892 -491 0
892 491 0
-893 -494 0
893 494 0
-894 -497 0
894 497 0
-895 -500 0
895 500 0
-896 -503 0
896 503 0
-897 -506 0
897 506 0
-898 -508 0
898 508 0
-899 -511 0
899 511 0
-900 -514 0
900 514 0
-901 -517 0
901 517 0
-902 -520 0
902 520 0
-903 -523 0
903 523 0
-904 -526 0
904 526 0
-905 -529 0
905 529 0
-906 -532 0
906 532 0
-907 -535 0
907 535 0
-908 -538 0
908 538 0
-909 -541 0
909 541 0
-910 -544 0
910 544 0
-911 -547 0
911 547 0
-912 -550 0
912 550 0
-913 -553 0
913 553 0
-914 -25 0
914 25 0
-915 -556 0
915 556 0
-916 -559 0
916 559 0
-917 -562 0
917 562 0
-918 -565 0
918 565 0
-919 -568 0
919 568 0
-920 -571 0
920 571 0
-921 -574 0
921 574 0
-922 -577 0
922 577 0
-923 -580 0
923 580 0
-924 -583 0
924 583 0
-925 -586 0
925 586 0
-926 -589 0
926 589 0
-927 -592 0
927 592 0
-928 -595 0
928 595 0
-929 -598 0
929 598 0
-930 -601 0
930 601 0
-931 -604 0
931 604 0
-932 -607 0
932 607 0
-933 -610 0
933 610 0
-934 -613 0
934 613 0
-935 -616 0
935 616 0
-936 -619 0
936 619 0
-937 -621 0
937 621 0
-938 -624 0
938 624 0
-939 -627 0
939 627 0
-940 -629 0
940 629 0
-941 -632 0
941 632 0
-942 -635 0
942 635 0
-943 -638 0
943 638 0
-944 -641 0
944 641 0
-945 -644 0
945 644 0
-946 -647 0
946 647 0
-947 -649 0
947 649 0
-948 -652 0
948 652 0
-949 -655 0
949 655 0
-950 -658 0
950 658 0
-951 -661 0
951 661 0
-952 -664 0
952 664 0
-953 -667 0
953 667 0
-954 -669 0
954 669 0
-955 -672 0
955 672 0
-956 -675 0
956 675 0
-957 -678 0
957 678 0
-958 -681 0
958 681 0
-959 -684 0
959 684 0
-960 -687 0
960 687 0
-961 -690 0
961 690 0
-962 -693 0
962 693 0
694 0
